c  s386
c  13 inputs
c  13 outputs
c  41 inverters
c  118 gates ( 83 ANDs + 35 ORs )
cc labels (1 V2) (2 V6) (3 V1) (4 V4) (5 V3) (6 V12) (7 V11) (8 V10) (9 V9) (10 V8) (11 V7) (12 V5) (13 V0) (14 I48) (15 I47) (16 B15B) (17 I164) (18 LV13_D_0) (19 I234) (20 V13_D_0) (21 I103) (22 I102) (23 B18B) (24 I22) (25 I100) (26 B17B) (27 I41) (28 I69) (29 B35BBAR) (30 B16B) (31 I40) (32 I39) (33 B19B) (34 I21) (35 B20B) (36 I195) (37 LV13_D_1) (38 I231) (39 V13_D_1) (40 I51) (41 I87) (42 B21B) (43 I50) (44 B22B) (45 I25) (46 I63) (47 I91) (48 I90) (49 B23B) (50 I62) (51 B24B) (52 I24) (53 LV13_D_2) (54 I228) (55 V13_D_2) (56 I96) (57 B26B) (58 I79) (59 B25B) (60 I36) (61 I54) (62 I89) (63 I94) (64 I93) (65 B27B) (66 I53) (67 B28B) (68 I35) (69 LV13_D_3) (70 I225) (71 V13_D_3) (72 V5BAR) (73 I106) (74 I105) (75 B29B) (76 I44) (77 I71) (78 B30B) (79 I43) (80 B31B) (81 I186) (82 LV13_D_4) (83 I222) (84 V13_D_4) (85 I104) (86 I85) (87 I84) (88 B32B) (89 I57) (90 B14B) (91 B14BBAR) (92 I56) (93 B33B) (94 I167) (95 LV13_D_5) (96 I219) (97 V13_D_5) (98 I66) (99 B35B) (100 II65) (101 B36B) (102 I31) (103 I171) (104 I30) (105 B37B) (106 I192) (107 LV13_D_6) (108 I216) (109 V13_D_6) (110 I74) (111 I73) (112 B38B) (113 I148) (114 LV13_D_7) (115 I213) (116 V13_D_7) (117 I98) (118 V6BAR) (119 I97) (120 LV13_D_8) (121 I210) (122 V13_D_8) (123 I77) (124 B34B) (125 B34BBAR) (126 V1BAR) (127 I76) (128 B39B) (129 I158) (130 LV13_D_9) (131 I207) (132 V13_D_9) (133 II98) (134 B40B) (135 I124) (136 LV13_D_10) (137 I204) (138 V13_D_10) (139 I114) (140 I113) (141 B41B) (142 I18) (143 V9BAR) (144 I175) (145 I28) (146 V10BAR) (147 I111) (148 B42B) (149 I60) (150 V4BAR) (151 V3BAR) (152 I109) (153 I108) (154 B43B) (155 I59) (156 B44B) (157 I27) (158 B45B) (159 I17) (160 LV13_D_11) (161 I201) (162 V13_D_11) (163 V12BAR) (164 V11BAR) (165 I65) (166 V8BAR) (167 V7BAR) (168 V0BAR) (169 I64) (170 LV13_D_12) (171 I198) (172 V13_D_12)
cc inputs 1 2 3 4 5 6 7 8 9 10 11 12 13 
cc outputs 172 162 138 132 122 116 109 97 84 71 55 39 20 
p cnf 172 506
171 172 0
-171 -172 0
170 171 0
-170 -171 0
170 -169 -165 0
-170 169 0
-170 165 0
169 -168 -12 -167 -166 0
-169 168 0
-169 12 0
-169 167 0
-169 166 0
13 168 0
-13 -168 0
11 167 0
-11 -167 0
10 166 0
-10 -166 0
165 -9 -8 -164 -163 0
-165 9 0
-165 8 0
-165 164 0
-165 163 0
7 164 0
-7 -164 0
6 163 0
-6 -163 0
161 162 0
-161 -162 0
160 161 0
-160 -161 0
-160 159 142 0
160 -159 0
160 -142 0
159 -158 -143 0
-159 158 0
-159 143 0
-158 157 145 0
158 -157 0
158 -145 0
157 -156 -146 0
-157 156 0
-157 146 0
-156 155 149 0
156 -155 0
156 -149 0
155 -154 -10 -163 0
-155 154 0
-155 10 0
-155 163 0
-154 153 152 0
154 -153 0
154 -152 0
153 -11 -7 0
-153 11 0
-153 7 0
152 -151 -150 -164 0
-152 151 0
-152 150 0
-152 164 0
5 151 0
-5 -151 0
4 150 0
-4 -150 0
149 -3 -148 0
-149 3 0
-149 148 0
-148 147 163 0
148 -147 0
148 -163 0
147 -167 -166 0
-147 167 0
-147 166 0
8 146 0
-8 -146 0
145 -8 -164 -163 -144 0
-145 8 0
-145 164 0
-145 163 0
-145 144 0
144 -13 -167 -166 0
-144 13 0
-144 167 0
-144 166 0
9 143 0
-9 -143 0
142 -168 -146 -141 0
-142 168 0
-142 146 0
-142 141 0
-141 140 139 0
141 -140 0
141 -139 0
140 -167 -166 0
-140 167 0
-140 166 0
139 -143 -163 0
-139 143 0
-139 163 0
137 138 0
-137 -138 0
136 137 0
-136 -137 0
136 -9 -164 -163 -135 0
-136 9 0
-136 164 0
-136 163 0
-136 135 0
135 -134 -3 -167 -166 0
-135 134 0
-135 3 0
-135 167 0
-135 166 0
-134 133 146 0
134 -133 0
134 -146 0
133 -13 -12 0
-133 13 0
-133 12 0
131 132 0
-131 -132 0
130 131 0
-130 -131 0
130 -164 -163 -129 0
-130 164 0
-130 163 0
-130 129 0
129 -128 -167 -143 0
-129 128 0
-129 167 0
-129 143 0
-128 127 123 0
128 -127 0
128 -123 0
127 -126 -4 -146 -125 0
-127 126 0
-127 4 0
-127 146 0
-127 125 0
3 126 0
-3 -126 0
124 125 0
-124 -125 0
-124 166 5 0
124 -166 0
124 -5 0
123 -13 -166 -8 0
-123 13 0
-123 166 0
-123 8 0
121 122 0
-121 -122 0
120 121 0
-120 -121 0
120 -119 -117 0
-120 119 0
-120 117 0
119 -13 -118 -167 -166 0
-119 13 0
-119 118 0
-119 167 0
-119 166 0
2 118 0
-2 -118 0
117 -143 -8 -164 -163 0
-117 143 0
-117 8 0
-117 164 0
-117 163 0
115 116 0
-115 -116 0
114 115 0
-114 -115 0
114 -143 -146 -163 -113 0
-114 143 0
-114 146 0
-114 163 0
-114 113 0
113 -112 -13 -126 0
-113 112 0
-113 13 0
-113 126 0
-112 111 110 0
112 -111 0
112 -110 0
111 -150 -164 -125 0
-111 150 0
-111 164 0
-111 125 0
110 -11 -166 -7 0
-110 11 0
-110 166 0
-110 7 0
108 109 0
-108 -109 0
107 108 0
-107 -108 0
107 -143 -146 -106 0
-107 143 0
-107 146 0
-107 106 0
106 -105 -13 -126 0
-106 105 0
-106 13 0
-106 126 0
-105 104 102 0
105 -104 0
105 -102 0
104 -7 -6 -103 0
-104 7 0
-104 6 0
-104 103 0
103 -12 -167 -166 0
-103 12 0
-103 167 0
-103 166 0
102 -101 -164 -163 0
-102 101 0
-102 164 0
-102 163 0
-101 100 98 0
101 -100 0
101 -98 0
100 -99 -124 0
-100 99 0
-100 124 0
-99 1 11 0
99 -1 0
99 -11 0
98 -4 -11 0
-98 4 0
-98 11 0
96 97 0
-96 -97 0
95 96 0
-95 -96 0
95 -143 -146 -94 0
-95 143 0
-95 146 0
-95 94 0
94 -93 -13 -126 0
-94 93 0
-94 13 0
-94 126 0
-93 92 89 0
93 -92 0
93 -89 0
92 -7 -163 -91 0
-92 7 0
-92 163 0
-92 91 0
90 91 0
-90 -91 0
-90 167 166 0
90 -167 0
90 -166 0
89 -88 -167 0
-89 88 0
-89 167 0
-88 87 86 0
88 -87 0
88 -86 0
87 -166 -7 -6 0
-87 166 0
-87 7 0
-87 6 0
86 -164 -163 -85 0
-86 164 0
-86 163 0
-86 85 0
85 -1 -5 -10 0
-85 1 0
-85 5 0
-85 10 0
83 84 0
-83 -84 0
82 83 0
-82 -83 0
82 -143 -146 -81 0
-82 143 0
-82 146 0
-82 81 0
81 -80 -13 -126 0
-81 80 0
-81 13 0
-81 126 0
-80 79 76 0
80 -79 0
80 -76 0
79 -78 -163 0
-79 78 0
-79 163 0
-78 77 11 0
78 -77 0
78 -11 0
77 -150 -164 -125 0
-77 150 0
-77 164 0
-77 125 0
76 -166 -75 0
-76 166 0
-76 75 0
-75 74 73 0
75 -74 0
75 -73 0
74 -1 -164 -163 0
-74 1 0
-74 164 0
-74 163 0
73 -72 -167 -7 -6 0
-73 72 0
-73 167 0
-73 7 0
-73 6 0
12 72 0
-12 -72 0
70 71 0
-70 -71 0
69 70 0
-69 -70 0
-69 68 60 0
69 -68 0
69 -60 0
68 -67 -163 0
-68 67 0
-68 163 0
-67 66 61 0
67 -66 0
67 -61 0
66 -65 -3 0
-66 65 0
-66 3 0
-65 64 63 0
65 -64 0
65 -63 0
64 -143 -146 0
-64 143 0
-64 146 0
63 -8 -164 -62 0
-63 8 0
-63 164 0
-63 62 0
62 -72 -167 -166 0
-62 72 0
-62 167 0
-62 166 0
61 -168 -143 -146 0
-61 168 0
-61 143 0
-61 146 0
60 -167 -166 -59 -57 0
-60 167 0
-60 166 0
-60 59 0
-60 57 0
-59 146 58 0
59 -146 0
59 -58 0
58 -164 -163 0
-58 164 0
-58 163 0
-57 168 56 0
57 -168 0
57 -56 0
56 -3 -143 0
-56 3 0
-56 143 0
54 55 0
-54 -55 0
53 54 0
-53 -54 0
-53 52 45 0
53 -52 0
53 -45 0
52 -51 -3 0
-52 51 0
-52 3 0
-51 50 46 0
51 -50 0
51 -46 0
50 -49 -167 -166 0
-50 49 0
-50 167 0
-50 166 0
-49 48 47 0
49 -48 0
49 -47 0
48 -143 -146 0
-48 143 0
-48 146 0
47 -13 -164 -163 0
-47 13 0
-47 164 0
-47 163 0
46 -143 -146 -163 0
-46 143 0
-46 146 0
-46 163 0
45 -168 -44 0
-45 168 0
-45 44 0
-44 43 40 0
44 -43 0
44 -40 0
43 -42 -167 -166 0
-43 42 0
-43 167 0
-43 166 0
-42 146 41 0
42 -146 0
42 -41 0
41 -72 -9 -164 -163 0
-41 72 0
-41 9 0
-41 164 0
-41 163 0
40 -143 -146 -163 0
-40 143 0
-40 146 0
-40 163 0
38 39 0
-38 -39 0
37 38 0
-37 -38 0
37 -143 -146 -36 0
-37 143 0
-37 146 0
-37 36 0
36 -35 -13 -126 0
-36 35 0
-36 13 0
-36 126 0
-35 34 24 0
35 -34 0
35 -24 0
34 -33 -163 0
-34 33 0
-34 163 0
-33 32 31 27 0
33 -32 0
33 -31 0
33 -27 0
32 -12 -11 -166 -7 0
-32 12 0
-32 11 0
-32 166 0
-32 7 0
31 -5 -10 -30 0
-31 5 0
-31 10 0
-31 30 0
-30 29 28 0
30 -29 0
30 -28 0
99 29 0
-99 -29 0
28 -11 -164 0
-28 11 0
-28 164 0
27 -4 -164 -26 0
-27 4 0
-27 164 0
-27 26 0
-26 11 25 0
26 -11 0
26 -25 0
25 -1 -166 0
-25 1 0
-25 166 0
24 -167 -23 0
-24 167 0
-24 23 0
-23 22 21 0
23 -22 0
23 -21 0
22 -166 -164 -6 0
-22 166 0
-22 164 0
-22 6 0
21 -10 -7 -163 0
-21 10 0
-21 7 0
-21 163 0
19 20 0
-19 -20 0
18 19 0
-18 -19 0
18 -143 -146 -163 -17 0
-18 143 0
-18 146 0
-18 163 0
-18 17 0
17 -16 -13 -126 0
-17 16 0
-17 13 0
-17 126 0
-16 15 14 0
16 -15 0
16 -14 0
15 -150 -164 -125 0
-15 150 0
-15 164 0
-15 125 0
14 -90 -7 0
-14 90 0
-14 7 0
%
0